20
 1 843 498
 2 437 922
 3 240 304
 4 300 987
 5 194 932
 6 925 817
 7 713 406
 8 43 129
 9 124 921
 10 985 900
 11 918 987
 12 574 81
 13 668 894
 14 342 399
 15 657 639
 16 553 952
 17 561 700
 18 995 738
 19 622 107
 20 487 631
 4000
